[runlim] version:		1.10
[runlim] time limit:		311040000 seconds
[runlim] real time limit:	600 seconds
[runlim] space limit:		8000 MB
[runlim] argv[0]:		python3
[runlim] argv[1]:		-u
[runlim] argv[2]:		mip.py
[runlim] argv[3]:		graph08
[runlim] start:			Thu Dec 11 20:50:26 2025
[runlim] main pid:		110400
Building MIP model...
[runlim] sample:		9.8 time, 10.8 real, 35.5 MB
[runlim] sample:		19.6 time, 20.0 real, 37.3 MB
[runlim] sample:		29.3 time, 30.0 real, 39.0 MB
[runlim] sample:		39.1 time, 40.0 real, 40.0 MB
[runlim] sample:		48.9 time, 50.0 real, 42.5 MB
[runlim] sample:		58.6 time, 59.2 real, 44.0 MB
[runlim] sample:		68.4 time, 69.2 real, 45.6 MB
[runlim] sample:		78.2 time, 79.2 real, 46.0 MB
[runlim] sample:		88.0 time, 88.5 real, 47.7 MB
[runlim] sample:		97.8 time, 98.5 real, 48.3 MB
[runlim] sample:		107.5 time, 108.5 real, 48.5 MB
[runlim] sample:		117.3 time, 117.8 real, 50.8 MB
[runlim] sample:		127.1 time, 127.8 real, 51.2 MB
[runlim] sample:		136.9 time, 137.8 real, 50.3 MB
Build time: 141.42s
Solving MIP (minimizing number of labels)...
Version identifier: 22.1.1.0 | 2022-11-28 | 9160aff4d
CPXPARAM_Read_DataCheck                          1
Tried aggregator 2 times.
MIP Presolve eliminated 383708 rows and 4 columns.
MIP Presolve modified 39877 coefficients.
Aggregator did 12814 substitutions.
Reduced MIP has 40157 rows, 12858 columns, and 387719 nonzeros.
Reduced MIP has 12858 binaries, 0 generals, 0 SOSs, and 0 indicators.
Presolve time = 2.22 sec. (1679.20 ticks)
Found incumbent of value 48.000000 after 2.65 sec. (2259.14 ticks)
Probing fixed 1 vars, tightened 0 bounds.
Probing time = 0.04 sec. (10.32 ticks)
Tried aggregator 1 time.
Detecting symmetries...
MIP Presolve eliminated 0 rows and 1 columns.
MIP Presolve modified 15 coefficients.
Reduced MIP has 40156 rows, 12857 columns, and 387668 nonzeros.
Reduced MIP has 12857 binaries, 0 generals, 0 SOSs, and 0 indicators.
Presolve time = 0.00 sec. (420.95 ticks)
Probing time = 0.03 sec. (5.40 ticks)
Clique table members: 44482.
MIP emphasis: balance optimality and feasibility.
MIP search method: dynamic search.
Parallel mode: deterministic, using up to 12 threads.
[runlim] sample:		157.6 time, 147.1 real, 481.8 MB
Root relaxation solution time = 8.35 sec. (4833.17 ticks)

        Nodes                                         Cuts/
   Node  Left     Objective  IInf  Best Integer    Best Bound    ItCnt     Gap

*     0+    0                           48.0000        0.0000           100.00%
*     0+    0                           32.0000        0.0000           100.00%
      0     0       18.0000  1011       32.0000       18.0000    10723   43.75%
[runlim] sample:		187.4 time, 157.1 real, 572.4 MB
*     0+    0                           28.0000       18.0000            35.71%
      0     0       18.0000  1287       28.0000      Cuts: 34    14475   35.71%
[runlim] sample:		206.9 time, 167.1 real, 589.1 MB
      0     0       18.0000   184       28.0000   Cliques: 11    15531   35.71%
[runlim] sample:		226.5 time, 177.1 real, 596.4 MB
[runlim] sample:		246.0 time, 187.1 real, 597.7 MB
[runlim] sample:		265.6 time, 196.0 real, 598.3 MB
[runlim] sample:		285.2 time, 206.0 real, 598.7 MB
[runlim] sample:		304.7 time, 216.0 real, 598.9 MB
[runlim] sample:		324.3 time, 225.3 real, 598.9 MB
[runlim] sample:		343.8 time, 235.3 real, 598.9 MB
[runlim] sample:		363.4 time, 245.3 real, 598.9 MB
[runlim] sample:		382.9 time, 255.3 real, 598.9 MB
[runlim] sample:		402.5 time, 264.6 real, 598.9 MB
[runlim] sample:		422.1 time, 274.6 real, 598.9 MB
[runlim] sample:		441.5 time, 284.6 real, 598.9 MB
[runlim] sample:		461.0 time, 293.8 real, 598.9 MB
[runlim] sample:		480.5 time, 303.8 real, 598.9 MB
[runlim] sample:		500.0 time, 313.8 real, 598.9 MB
[runlim] sample:		519.6 time, 323.0 real, 598.9 MB
[runlim] sample:		539.1 time, 333.0 real, 598.9 MB
[runlim] sample:		558.6 time, 343.0 real, 598.9 MB
[runlim] sample:		578.1 time, 352.2 real, 598.9 MB
[runlim] sample:		597.7 time, 362.2 real, 598.9 MB
[runlim] sample:		617.2 time, 372.2 real, 598.9 MB
[runlim] sample:		636.8 time, 382.2 real, 598.9 MB
[runlim] sample:		656.3 time, 391.5 real, 598.9 MB
[runlim] sample:		675.8 time, 401.5 real, 598.9 MB
[runlim] sample:		695.4 time, 411.5 real, 598.9 MB
[runlim] sample:		714.9 time, 420.7 real, 598.9 MB
[runlim] sample:		734.5 time, 430.7 real, 598.9 MB
[runlim] sample:		754.0 time, 440.7 real, 598.9 MB
[runlim] sample:		773.6 time, 450.0 real, 598.9 MB
[runlim] sample:		793.1 time, 460.0 real, 598.9 MB
[runlim] sample:		812.7 time, 470.0 real, 598.9 MB
[runlim] sample:		832.2 time, 479.3 real, 598.9 MB
[runlim] sample:		851.8 time, 489.3 real, 598.9 MB
[runlim] sample:		871.3 time, 499.3 real, 598.9 MB
[runlim] sample:		890.9 time, 508.6 real, 598.9 MB
[runlim] sample:		910.4 time, 518.6 real, 598.9 MB
[runlim] sample:		929.9 time, 528.6 real, 598.9 MB
[runlim] sample:		949.5 time, 538.6 real, 598.9 MB
[runlim] sample:		969.0 time, 547.8 real, 598.9 MB
[runlim] sample:		988.4 time, 557.8 real, 598.9 MB
[runlim] sample:		1007.9 time, 567.8 real, 598.9 MB
[runlim] sample:		1027.5 time, 577.0 real, 598.9 MB
[runlim] sample:		1046.9 time, 587.0 real, 598.9 MB
[runlim] sample:		1066.4 time, 597.0 real, 598.9 MB
[runlim] end:			Thu Dec 11 21:00:26 2025
[runlim] status:		out of time
[runlim] result:		2
[runlim] children:		0
[runlim] real:			600.11 seconds
[runlim] time:			1072.46 seconds
[runlim] space:			598.9 MB
[runlim] samples:		6131
